(declare-const |K:53| Int)
(declare-const |x':48| Int)
(declare-const |y':49| Int)
(assert (and (or (not (<= (- |K:53|) 0)) (= (+ |x':48| (- |K:53|)) 0))
               (or (not (<= (- |K:53|) 0))
                     (<= (+ (* -100 |y':49|) (* |K:53| |K:53|) (* -99 |K:53|)
                              5000) 0))
               (or (not (<= (- |K:53|) 0)) (<= (+ |y':49| (- |K:53|) -50) 0))
               (or (not (<= (- |K:53|) 0)) (<= (+ (- |y':49|) 50) 0))
               (or (not (<= (- |K:53|) 0))
                     (<= (+ (* 100 |y':49|) (- (* |K:53| |K:53|)) |K:53|
                              -5000) 0))
               (or (and (= |K:53| 0) (= (+ (- |y':49|) 50) 0)
                          (= (- |x':48|) 0))
                     (and (<= (+ (- |K:53|) 1) 0) (<= (+ |x':48| -100) 0)
                            (<= (+ (* -50 |y':49|) |x':48|) 0)
                            (<= (+ (- |y':49|) 1) 0) (<= (+ (- |x':48|) 1) 0)))
               (<= (- |K:53|) 0) (< (- |y':49|) 0) (<= (- |x':48|) 0)
               (<= (+ (- |x':48|) 100) 0) (not (= (+ |y':49| -100) 0))))
(check-sat)
